
/* PLEASE DO NOT EDIT THIS FILE */
/* Auto-generated by check_mapp.cpp for lp_solve */

/* ~~~~~~~~~~~~~~~~~~~~~~~~~~~~~~~~~~~~~~~~~~~~~~~~~~~~~~~~~~~~~~~~~~~~~~~~~~~~~~~~~~~~~~~~~ */
/* ~~~~~~~~~~~~~~~~~~~~~~~~~~ Hungarian Algorithm ILP formulation ~~~~~~~~~~~~~~~~~~~~~~~~~~ */
/* ~~~~~~~~~~~~~~~~~~~~~~~~~~~~~~~~~~~~~~~~~~~~~~~~~~~~~~~~~~~~~~~~~~~~~~~~~~~~~~~~~~~~~~~~~ */

min: cost;

1553 x00000 + 1000000 x00001 + 1000000 x00002 + 1000000 x00003 + 1000000 x00004 + 1000000 x00005 + 1000000 x00006 + 1000000 x00007 + 1000000 x00008 + 2228 x00009 + 1000000 x01000 + 1000000 x01001 + 1000000 x01002 + 1000000 x01003 + 1000000 x01004 + 1000000 x01005 + 1000000 x01006 + 4277 x01007 + 1000000 x01008 + 1000000 x01009 + 1000000 x02000 + 1000000 x02001 + 2472 x02002 + 1000000 x02003 + 2368 x02004 + 1126 x02005 + 1063 x02006 + 1000000 x02007 + 1000000 x02008 + 1000000 x02009 + 1000000 x03000 + 1000000 x03001 + 3813 x03002 + 1103 x03003 + 1000000 x03004 + 1000000 x03005 + 1000000 x03006 + 132 x03007 + 1000000 x03008 + 1000000 x03009 + 2360 x04000 + 1000000 x04001 + 1000000 x04002 + 1000000 x04003 + 3305 x04004 + 1000000 x04005 + 1000000 x04006 + 2203 x04007 + 1000000 x04008 + 1897 x04009 + 1000000 x05000 + 1000000 x05001 + 1000000 x05002 + 78 x05003 + 3549 x05004 + 1000000 x05005 + 1204 x05006 + 1000000 x05007 + 1000000 x05008 + 1000000 x05009 + 1741 x06000 + 2109 x06001 + 1000000 x06002 + 1000000 x06003 + 3213 x06004 + 39 x06005 + 1000000 x06006 + 1076 x06007 + 171 x06008 + 3309 x06009 + 1000000 x07000 + 2531 x07001 + 887 x07002 + 1000000 x07003 + 1815 x07004 + 4192 x07005 + 1000000 x07006 + 1000000 x07007 + 1000000 x07008 + 1000000 x07009 + 451 x08000 + 4002 x08001 + 1000000 x08002 + 1000000 x08003 + 4080 x08004 + 1000000 x08005 + 1000000 x08006 + 1000000 x08007 + 3182 x08008 + 3194 x08009 + 2494 x09000 + 1000000 x09001 + 1000000 x09002 + 1000000 x09003 + 479 x09004 + 1000000 x09005 + 1000000 x09006 + 1000000 x09007 + 1000000 x09008 + 1000000 x09009 = cost;

x00000 + x01000 + x02000 + x03000 + x04000 + x05000 + x06000 + x07000 + x08000 + x09000 = 1;

x00001 + x01001 + x02001 + x03001 + x04001 + x05001 + x06001 + x07001 + x08001 + x09001 = 1;

x00002 + x01002 + x02002 + x03002 + x04002 + x05002 + x06002 + x07002 + x08002 + x09002 = 1;

x00003 + x01003 + x02003 + x03003 + x04003 + x05003 + x06003 + x07003 + x08003 + x09003 = 1;

x00004 + x01004 + x02004 + x03004 + x04004 + x05004 + x06004 + x07004 + x08004 + x09004 = 1;

x00005 + x01005 + x02005 + x03005 + x04005 + x05005 + x06005 + x07005 + x08005 + x09005 = 1;

x00006 + x01006 + x02006 + x03006 + x04006 + x05006 + x06006 + x07006 + x08006 + x09006 = 1;

x00007 + x01007 + x02007 + x03007 + x04007 + x05007 + x06007 + x07007 + x08007 + x09007 = 1;

x00008 + x01008 + x02008 + x03008 + x04008 + x05008 + x06008 + x07008 + x08008 + x09008 = 1;

x00009 + x01009 + x02009 + x03009 + x04009 + x05009 + x06009 + x07009 + x08009 + x09009 = 1;

x00000 + x00001 + x00002 + x00003 + x00004 + x00005 + x00006 + x00007 + x00008 + x00009 = 1;

x01000 + x01001 + x01002 + x01003 + x01004 + x01005 + x01006 + x01007 + x01008 + x01009 = 1;

x02000 + x02001 + x02002 + x02003 + x02004 + x02005 + x02006 + x02007 + x02008 + x02009 = 1;

x03000 + x03001 + x03002 + x03003 + x03004 + x03005 + x03006 + x03007 + x03008 + x03009 = 1;

x04000 + x04001 + x04002 + x04003 + x04004 + x04005 + x04006 + x04007 + x04008 + x04009 = 1;

x05000 + x05001 + x05002 + x05003 + x05004 + x05005 + x05006 + x05007 + x05008 + x05009 = 1;

x06000 + x06001 + x06002 + x06003 + x06004 + x06005 + x06006 + x06007 + x06008 + x06009 = 1;

x07000 + x07001 + x07002 + x07003 + x07004 + x07005 + x07006 + x07007 + x07008 + x07009 = 1;

x08000 + x08001 + x08002 + x08003 + x08004 + x08005 + x08006 + x08007 + x08008 + x08009 = 1;

x09000 + x09001 + x09002 + x09003 + x09004 + x09005 + x09006 + x09007 + x09008 + x09009 = 1;

bin x00000, x00001, x00002, x00003, x00004, x00005, x00006, x00007, x00008, x00009;

bin x01000, x01001, x01002, x01003, x01004, x01005, x01006, x01007, x01008, x01009;

bin x02000, x02001, x02002, x02003, x02004, x02005, x02006, x02007, x02008, x02009;

bin x03000, x03001, x03002, x03003, x03004, x03005, x03006, x03007, x03008, x03009;

bin x04000, x04001, x04002, x04003, x04004, x04005, x04006, x04007, x04008, x04009;

bin x05000, x05001, x05002, x05003, x05004, x05005, x05006, x05007, x05008, x05009;

bin x06000, x06001, x06002, x06003, x06004, x06005, x06006, x06007, x06008, x06009;

bin x07000, x07001, x07002, x07003, x07004, x07005, x07006, x07007, x07008, x07009;

bin x08000, x08001, x08002, x08003, x08004, x08005, x08006, x08007, x08008, x08009;

bin x09000, x09001, x09002, x09003, x09004, x09005, x09006, x09007, x09008, x09009;

/* ~~~~~~~~~~~~~~~~~~~~~~~~~~~~~~~~~~~~~~~~~~~~~~~~~~~~~~~~~~~~~~~~~~~~~~~~~~~~~~~~~~~~~~~~~ */
